1000 1 30 1001 1001 1001 1001 1001 1001 1001 1001 1001 1001 1001 1001 1001 1001 1001 1001 1001 1001 1001 1001 1001 1001 1001 1001 1001 1001 1001 1001 1001 1001 1001 1001 1001 1001 1001 1001 1001 1001 1001 1001 1001 1001 1001 1001 1001 1001 1001 1001 1001 1001 1001 1001 1001 1001 1001 1001 1001 1001 1001 1001 -12 172 545 712 8 720 999 555 936 641 453 188 265 814 917 663 869 773 837 771 562 578 268 788 380 266 920 761 216 327 240 283 752 732 -73 826 279 929 338 858 625 9 981 810 238 448 630 218 305 227 744 927 42 782 614 851 969 653 998 200 847 326 692 834 354 687 979 845 -77 1000 749 455 499 164 201 909 70 678 918 685 124 876 451 465 894 701 416 910 700 11 244 259 706 381 443 849 404 319 409 -97 333 613 911 540 891 397 535 945 997 220 401 142 567 872 194 648 781 973 668 755 202 728 35 884 882 671 865 959 478 -98 119 767 921 387 318 674 602 271 690 19 560 249 579 533 748 709 633 336 2 153 527 36 68 615 503 830 215 324 -111 673 379 197 776 640 38 258 95 572 951 278 253 206 250 857 809 856 209 941 444 127 371 888 574 711 904 780 765 299 386 177 222 433 388 -170 296 590 867 513 236 559 890 542 900 292 428 680 126 878 282 61 519 348 146 584 312 99 80 310 115 118 31 335 731 577 157 149 676 -183 550 449 422 963 313 281 914 605 17 121 480 484 992 275 985 721 677 29 658 493 273 768 787 158 151 407 620 643 933 553 18 315 -189 565 50 180 41 37 656 116 214 806 716 839 961 552 3 705 243 55 860 595 161 544 828 440 272 564 100 618 378 812 470 906 367 399 925 256 -241 561 62 229 459 786 257 462 76 426 307 251 895 167 763 199 129 33 802 502 695 467 360 87 418 464 747 657 377 112 458 977 508 609 719 873 -280 389 745 654 64 213 729 662 267 946 543 756 723 717 570 487 136 813 321 69 980 581 173 616 75 646 402 349 276 934 163 819 793 384 645 686 -308 859 587 14 862 881 474 94 987 604 285 538 196 923 373 191 742 548 795 880 290 866 90 425 612 344 571 101 740 102 532 466 930 817 842 150 -309 210 203 406 575 437 415 219 438 58 843 838 204 343 488 924 547 91 274 984 284 926 965 831 140 247 688 1 808 287 803 -342 350 352 67 827 78 96 746 652 491 187 960 390 184 494 907 403 374 20 521 245 764 775 958 47 807 962 182 15 600 -346 833 138 363 821 622 606 7 212 109 483 978 156 619 92 790 193 632 996 938 186 928 737 22 950 568 39 710 304 154 6 113 784 522 626 -382 108 442 903 277 504 943 337 777 855 944 551 694 850 563 666 994 627 424 316 228 557 306 289 122 696 60 476 25 642 949 -383 252 554 421 405 983 586 431 597 104 393 166 27 599 875 176 638 59 631 955 135 897 893 74 683 636 231 691 334 629 21 452 447 -408 88 922 932 143 531 738 224 861 63 846 896 898 44 427 254 546 295 365 435 211 534 323 351 395 704 779 617 454 899 -423 34 49 495 155 134 471 468 772 908 818 824 171 485 791 583 396 144 986 725 65 832 192 30 766 372 410 954 179 439 48 66 796 81 139 -445 942 733 356 823 967 417 739 639 798 743 901 660 430 325 573 591 603 174 724 368 56 778 330 482 634 84 128 328 529 844 902 975 675 486 976 -472 610 420 291 539 684 970 376 635 601 524 971 623 103 886 481 525 736 848 505 270 40 593 168 506 528 329 968 461 708 414 637 -473 804 829 713 913 141 314 526 441 511 28 783 964 836 974 769 23 794 940 596 797 628 919 114 751 432 237 300 816 261 341 948 585 239 332 -509 394 130 580 230 359 722 303 446 106 269 385 697 501 541 800 436 54 879 79 537 357 523 679 311 93 16 260 507 805 105 702 89 -589 689 566 889 86 339 132 475 825 413 669 512 262 148 195 159 362 400 26 854 347 682 536 169 939 53 246 185 916 649 221 -650 457 935 107 518 576 598 727 165 863 294 223 607 510 693 205 331 655 496 52 952 515 864 715 912 297 621 770 477 370 759 490 302 -651 460 419 730 364 991 820 117 500 479 178 874 242 434 735 463 133 840 549 361 175 301 558 456 489 120 366 887 43 672 208 353 264 -665 582 391 905 647 937 255 758 811 398 915 57 429 234 162 340 71 24 750 754 741 358 198 51 868 412 517 734 317 248 841 947 152 698 644 82 -718 659 801 822 877 760 137 181 608 10 892 753 217 707 664 762 288 703 972 232 83 125 799 263 226 145 235 956 207 160 45 225 -757 957 345 530 450 988 516 953 233 5 885 147 853 726 989 789 72 815 369 32 785 681 774 990 392 131 661 592 883 190 355 871 699 13 588 -835 110 993 792 298 670 322 520 569 320 995 375 469 286 982 870 4 411 852 556 514 85 594 498 123 966 624 714 497 931 492 46 611 667 293 0 
30.000000 -0.475488 3556.693533 3557.169021 21.397107 3698.105675 3676.708568 -0.539594 3479.240717 3479.780311 -0.129474 3248.169603 3248.299077 -0.071068 3040.871471 3040.942539 24.601768 3834.443798 3809.842030 -0.834630 3593.941720 3594.776350 20.107194 3630.538198 3610.431004 28.414287 3812.629881 3784.215594 -0.954540 3898.363962 3899.318502 21.913207 3785.365520 3763.452313 -0.508883 3746.812261 3747.321144 -0.096118 3428.363823 3428.459942 -0.361283 3200.804514 3201.165797 -0.992958 3853.989441 3854.982399 -0.316955 3593.093359 3593.410313 -0.647901 3531.738255 3532.386156 -0.384632 3285.877130 3286.261762 -0.953116 3840.488575 3841.441691 -0.060551 3548.152775 3548.213325 -0.677332 3273.184290 3273.861622 29.447298 3598.974479 3569.527181 51.131267 3623.190810 3572.059543 -0.817739 3361.839350 3362.657089 -0.409475 3714.630966 3715.040441 -0.815273 3669.110711 3669.925984 -0.230896 3875.807111 3876.038007 -0.612124 3644.599254 3645.211378 -0.200821 3848.249610 3848.450431 -0.862353 3720.489704 3721.352056 1000.000000 0.000000 0.000000 0.000000 0.000000 0.000000 0.000000 0.000000 0.000000 0.000000 0.000000 0.000000 0.000000 0.000000 0.000000 0.000000 0.000000 0.000000 0.000000 0.000000 0.000000 0.000000 0.000000 0.000000 0.000000 0.000000 0.000000 0.000000 0.000000 0.000000 0.000000 0.000000 0.000000 0.000000 0.000000 0.000000 0.000000 0.000000 0.000000 0.000000 0.000000 0.000000 0.000000 0.000000 0.000000 0.000000 0.000000 0.000000 0.000000 0.000000 0.000000 0.000000 0.000000 0.000000 0.000000 0.000000 0.000000 0.000000 0.000000 0.000000 0.000000 0.000000 0.000000 0.000000 34.189423 0.000000 0.000000 0.171573 0.000000 0.000000 0.000000 0.000000 0.000000 0.000000 0.000000 0.000000 0.000000 0.000000 0.000000 0.000000 0.000000 0.000000 0.000000 0.000000 0.000000 0.000000 0.000000 0.000000 0.000000 0.000000 0.000000 0.000000 0.000000 0.876894 0.000000 0.000000 0.000000 0.000000 0.000000 7.671207 0.000000 0.000000 0.000000 0.000000 0.115089 0.000000 0.000000 0.000000 0.000000 0.000000 0.000000 0.000000 0.000000 0.000000 0.000000 0.000000 0.000000 0.000000 0.000000 0.000000 0.000000 0.000000 0.000000 0.000000 0.000000 0.000000 0.000000 0.000000 0.000000 0.000000 0.000000 0.000000 0.000000 0.000000 0.000000 0.000000 0.000000 0.000000 0.000000 0.000000 116.282989 0.000000 0.000000 0.000000 0.000000 0.000000 0.000000 0.000000 0.000000 0.000000 0.000000 0.000000 0.000000 0.000000 0.000000 0.000000 0.000000 0.000000 0.000000 0.000000 0.000000 0.000000 0.000000 0.000000 0.000000 0.000000 0.000000 0.000000 0.000000 0.000000 0.000000 0.000000 0.000000 0.000000 0.000000 0.000000 0.000000 0.000000 0.000000 0.000000 0.000000 0.000000 0.000000 0.000000 0.000000 0.000000 0.000000 0.000000 0.000000 0.000000 0.000000 0.000000 0.000000 0.000000 0.000000 29.891618 0.000000 0.000000 0.000000 0.000000 0.000000 0.000000 0.000000 32.174688 0.000000 0.000000 0.000000 0.000000 0.000000 0.000000 0.000000 0.000000 0.000000 0.000000 0.000000 0.000000 0.000000 0.000000 0.000000 0.000000 0.000000 0.000000 0.000000 0.000000 0.000000 0.000000 0.000000 0.000000 0.000000 0.000000 0.000000 0.000000 0.000000 0.000000 0.000000 0.000000 47.285068 0.000000 0.000000 0.000000 0.000000 0.000000 0.000000 0.000000 0.000000 2.499935 0.000000 0.000000 0.000000 0.000000 0.000000 0.000000 0.000000 0.000000 0.000000 0.000000 0.000000 0.000000 0.000000 0.000000 0.000000 0.000000 0.000000 0.000000 0.000000 0.000000 0.000000 0.000000 0.000000 0.000000 0.000000 0.000000 0.000000 0.000000 0.000000 0.000000 0.000000 0.000000 0.000000 0.000000 0.000000 0.000000 0.000000 0.000000 0.000000 0.000000 0.000000 0.000000 0.000000 0.000000 0.000000 0.000000 0.000000 0.000000 0.000000 0.000000 0.000000 0.000000 0.000000 0.000000 0.000000 0.000000 0.000000 0.000000 0.000000 0.000000 0.000000 0.000000 0.000000 0.000000 0.000000 21.675445 0.000000 0.000000 0.000000 0.000000 0.000000 0.000000 0.000000 0.000000 0.000000 0.000000 0.000000 0.000000 0.000000 0.000000 0.000000 0.000000 0.000000 0.000000 0.000000 0.000000 0.000000 0.000000 0.000000 0.000000 0.000000 0.000000 0.000000 0.000000 0.000000 0.000000 0.000000 0.000000 0.000000 0.000000 0.000000 0.000000 0.000000 0.000000 24.151142 0.000000 92.704370 0.000000 0.000000 0.000000 0.000000 13.165292 0.000000 0.000000 0.000000 0.000000 0.000000 0.000000 0.000000 0.000000 0.000000 0.000000 0.000000 0.000000 0.000000 0.000000 0.000000 0.000000 0.000000 0.000000 0.000000 0.000000 0.000000 0.000000 0.000000 0.000000 0.000000 0.000000 0.000000 0.000000 0.000000 0.000000 0.000000 0.000000 0.000000 0.000000 0.000000 0.000000 0.000000 0.000000 0.000000 0.000000 0.000000 0.000000 0.000000 0.000000 0.000000 0.000000 0.000000 0.000000 0.000000 0.000000 0.000000 0.000000 0.000000 0.000000 0.000000 0.000000 0.000000 0.000000 0.000000 0.000000 0.000000 0.000000 0.000000 0.000000 0.000000 0.000000 0.000000 0.000000 0.000000 0.000000 0.000000 0.000000 0.000000 0.000000 0.000000 0.000000 0.000000 0.000000 0.000000 0.000000 0.000000 0.000000 0.000000 0.000000 0.000000 0.000000 0.000000 0.000000 0.000000 0.000000 0.000000 0.000000 0.000000 0.000000 0.000000 0.000000 0.000000 0.000000 0.000000 0.000000 0.000000 0.000000 0.000000 0.000000 0.000000 0.000000 0.000000 0.000000 0.000000 0.000000 0.000000 0.000000 0.000000 0.000000 0.000000 0.000000 0.000000 0.000000 0.000000 0.000000 0.000000 0.000000 0.000000 0.000000 0.000000 0.000000 0.000000 0.000000 0.000000 0.000000 0.000000 0.000000 0.000000 0.000000 0.000000 0.000000 0.000000 0.000000 0.000000 0.000000 0.000000 0.000000 0.000000 0.000000 0.000000 0.000000 0.000000 0.000000 0.000000 0.000000 0.000000 0.000000 0.000000 0.000000 0.000000 0.000000 0.000000 0.000000 0.000000 0.000000 0.000000 0.000000 0.000000 0.000000 0.000000 0.000000 0.000000 0.000000 0.000000 0.000000 0.000000 0.000000 0.000000 0.000000 0.000000 0.000000 0.000000 0.000000 0.000000 0.000000 31.945071 0.000000 0.000000 0.000000 0.000000 0.000000 0.000000 0.000000 0.000000 0.000000 0.000000 0.000000 0.000000 0.000000 0.000000 0.000000 0.000000 0.000000 0.000000 0.000000 0.000000 0.000000 0.000000 0.000000 0.000000 0.000000 0.000000 0.000000 0.000000 0.000000 0.000000 0.000000 0.000000 0.000000 0.000000 0.000000 0.000000 0.000000 0.000000 0.000000 0.000000 0.000000 0.000000 0.000000 0.000000 0.000000 0.000000 0.000000 0.000000 0.000000 0.000000 0.000000 0.000000 0.000000 0.000000 0.000000 0.000000 0.000000 0.000000 0.000000 0.000000 0.000000 0.000000 0.000000 0.000000 0.000000 0.000000 0.000000 0.000000 0.000000 0.000000 0.000000 0.000000 0.000000 0.000000 214.445299 0.000000 0.000000 0.000000 0.000000 0.000000 0.000000 0.000000 0.000000 0.000000 0.000000 0.000000 0.000000 0.000000 0.000000 0.000000 0.000000 0.000000 0.000000 0.000000 0.000000 0.000000 0.000000 0.000000 0.000000 0.000000 0.000000 0.000000 0.000000 0.000000 0.000000 0.000000 0.000000 0.000000 0.000000 0.000000 0.000000 0.000000 0.000000 0.000000 0.000000 0.000000 0.000000 0.000000 0.000000 0.000000 0.000000 0.000000 0.000000 0.000000 0.000000 0.000000 0.000000 0.000000 0.000000 0.000000 0.000000 0.000000 0.000000 0.000000 0.000000 0.000000 0.000000 0.000000 0.000000 0.000000 0.000000 0.000000 0.000000 0.000000 0.000000 0.000000 34.195070 0.000000 0.000000 0.000000 0.000000 0.000000 0.000000 0.000000 0.000000 0.000000 0.000000 0.000000 0.000000 0.000000 0.000000 0.000000 0.000000 0.000000 0.000000 0.000000 0.000000 0.000000 0.000000 0.000000 0.000000 0.000000 0.000000 0.000000 0.000000 0.000000 0.000000 0.000000 0.000000 0.000000 0.000000 0.000000 0.000000 0.000000 0.000000 0.000000 0.000000 0.000000 28.959505 0.000000 0.000000 0.000000 0.000000 0.000000 0.000000 0.000000 0.000000 0.000000 0.000000 0.000000 0.000000 0.000000 0.000000 0.000000 0.000000 0.000000 0.000000 0.000000 0.000000 0.000000 0.000000 0.000000 0.000000 0.000000 0.000000 0.000000 0.000000 0.000000 0.000000 0.000000 0.000000 0.000000 0.000000 0.000000 0.000000 0.000000 0.000000 0.000000 127.628369 0.000000 0.000000 0.000000 0.000000 0.000000 0.000000 0.000000 0.000000 0.000000 0.000000 0.000000 0.000000 0.000000 0.000000 0.000000 0.000000 0.000000 0.000000 0.000000 0.000000 0.000000 0.000000 0.000000 0.000000 0.000000 0.000000 0.000000 0.000000 0.000000 0.000000 0.000000 0.000000 0.000000 0.000000 0.000000 0.000000 0.000000 0.000000 0.000000 0.000000 0.000000 0.000000 0.000000 0.000000 0.000000 0.000000 0.000000 0.000000 0.000000 0.000000 0.000000 0.000000 0.000000 0.000000 0.000000 0.000000 0.000000 0.000000 0.000000 0.000000 0.000000 0.000000 0.000000 0.000000 0.000000 0.000000 0.000000 0.000000 0.000000 0.000000 0.000000 0.000000 0.000000 0.000000 0.000000 0.000000 0.000000 0.000000 0.000000 0.000000 0.000000 0.000000 0.000000 0.000000 0.000000 0.000000 0.000000 36.980309 0.000000 0.000000 0.000000 0.000000 0.000000 0.000000 0.000000 0.000000 0.000000 0.000000 0.000000 0.000000 0.000000 0.000000 0.000000 0.000000 0.000000 0.000000 0.000000 0.000000 0.000000 0.000000 0.000000 0.000000 0.000000 0.000000 0.000000 0.000000 0.000000 0.000000 0.000000 0.000000 0.000000 0.000000 0.000000 0.000000 0.000000 0.000000 0.000000 0.000000 0.000000 0.000000 0.000000 0.000000 0.000000 0.000000 0.000000 0.000000 0.000000 0.000000 0.000000 0.000000 0.000000 0.000000 0.000000 0.000000 0.000000 0.000000 0.000000 0.000000 0.000000 0.000000 0.000000 0.000000 0.000000 0.000000 0.000000 0.000000 0.000000 0.000000 0.000000 0.000000 0.000000 0.000000 0.000000 0.000000 0.000000 0.000000 0.000000 0.000000 0.000000 0.000000 0.000000 0.000000 0.000000 0.000000 0.000000 0.000000 0.000000 0.000000 0.000000 0.000000 0.000000 234.291746 0.000000 0.000000 0.000000 0.000000 0.000000 0.000000 0.000000 0.000000 0.000000 0.000000 0.000000 0.000000 0.000000 0.000000 0.000000 0.000000 0.000000 0.000000 0.000000 0.000000 0.000000 0.000000 0.000000 0.000000 0.000000 0.000000 0.000000 0.000000 0.000000 0.000000 0.000000 0.000000 0.000000 29.406983 0.000000 0.000000 0.000000 30.422569 0.000000 0.000000 0.000000 0.000000 0.000000 0.000000 0.000000 0.000000 0.000000 0.000000 0.000000 0.000000 0.000000 




Total_objective=
16561.571915
Best_SOL_TIME=
0.000000
BEST_KNOWN=
1073741824.000
ComputeTime=
-3689348814741910.50
Route_num=
30
Routes_len=
16561.572
Total_travel_time=
16561.57
Total_service_time=
107752.70
Total_early_time=
1191.13
Total_late_time=
0.00
